;; ===================== PROJECTED CANON (QE) =====================
;; Each clause below is entailed by Proj = ∃W.F over the canonical vocabulary.
;; Units appear first for clarity; OR-clauses (SAT-filtered) follow.
;; ==================================================================

;; Additional OR-clauses (SAT-filtered)
(assert (or patient_has_diagnosis_of_dementia_now patient_has_diagnosis_of_chronic_obstructive_lung_disease_now patient_has_diagnosis_of_end_stage_renal_failure_on_dialysis_now))
